 &control
    calculation = 'scf',
    restart_mode = 'from_scratch',
    prefix = 'ni_fm',
    pseudo_dir   = '/home/faust/qe-7.0/pseudo/',
    outdir = './tmp/',
 /
 &system
    ibrav = 2,
    celldm(1) = 6.48,
    nat = 1,
    ntyp = 1,
    ecutwfc = 24.0,
    ecutrho = 288.0,
    nspin = 2,
    starting_magnetization(1) = 0.7,
    occupations = 'smearing',
    smearing = 'mv',
    degauss = 0.02,
 /
 &electrons
    conv_thr = 1.0d-8,
    mixing_beta = 0.3,
 /
ATOMIC_SPECIES
 Ni  58.6934  Ni.pz-nd-rrkjus.UPF
ATOMIC_POSITIONS alat
 Ni  0.0  0.0  0.0
K_POINTS automatic
 8  8  8  1  1  1
