&input
    fildyn = 'si.dynG',
    asr = 'simple',
    filout = 'dynmat.out',
    filxsf = 'dynmat.axsf',
/
