# bands.x 后处理 — Al 能带
# 从 pw.x 的 bands 计算结果中提取能带数据
# 输出文件可用于 matplotlib 或 gnuplot 绘图

 &bands
    prefix  = 'al'
    outdir  = './tmp/'
    filband = 'al_bands.dat'
 /
