# Cu FCC — 能带计算
# 沿高对称路径: Gamma-X-W-L-Gamma-K
# Cu 使用超软赝势，注意 ecutrho

 &control
    calculation  = 'bands'
    restart_mode = 'from_scratch'
    prefix       = 'cu'
    pseudo_dir   = '/home/faust/qe-7.0/pseudo/'
    outdir       = './tmp/'
 /

 &system
    ibrav        = 2
    celldm(1)    = 6.73
    nat          = 1
    ntyp         = 1
    ecutwfc      = 25.0
    ecutrho      = 300.0
    nbnd         = 8
    occupations  = 'smearing'
    smearing     = 'marzari-vanderbilt'
    degauss      = 0.02
 /

 &electrons
    diagonalization = 'david'
 /

ATOMIC_SPECIES
 Cu  63.55  Cu.pz-d-rrkjus.UPF

ATOMIC_POSITIONS alat
 Cu  0.0  0.0  0.0

K_POINTS crystal_b
5
  0.000  0.000  0.000  20  ! Gamma
  0.500  0.000  0.500  20  ! X
  0.500  0.250  0.750  10  ! W
  0.500  0.500  0.500  20  ! L
  0.000  0.000  0.000  1   ! Gamma
