# Cu FCC — SCF 基态计算
# 超软赝势 (USPP): ecutrho 必须指定
# Marzari-Vanderbilt smearing
# 参考：PW/examples/example01

 &control
    calculation  = 'scf'
    restart_mode = 'from_scratch'
    prefix       = 'cu'
    pseudo_dir   = '/home/faust/qe-7.0/pseudo/'
    outdir       = './tmp/'
    tstress      = .true.
    tprnfor      = .true.
 /

 &system
    ibrav        = 2
    celldm(1)    = 6.73
    nat          = 1
    ntyp         = 1
    ecutwfc      = 25.0
    ecutrho      = 300.0
    occupations  = 'smearing'
    smearing     = 'marzari-vanderbilt'
    degauss      = 0.02
 /

 &electrons
    diagonalization = 'david'
    mixing_beta     = 0.7
    conv_thr        = 1.0d-8
 /

ATOMIC_SPECIES
 Cu  63.55  Cu.pz-d-rrkjus.UPF

ATOMIC_POSITIONS alat
 Cu  0.0  0.0  0.0

K_POINTS automatic
 8 8 8 0 0 0
