&bands
    prefix   = 'silicon'
    outdir   = './tmp/'
    filband  = 'si_bands.dat'
    lsym     = .true.
/
